Version identifier: 22.1.1.0 | 2022-11-28 | 9160aff4d
CPXPARAM_ClockType                               1
CPXPARAM_Read_DataCheck                          1
CPXPARAM_Threads                                 1
CPXPARAM_TimeLimit                               7200
CPXPARAM_MIP_Tolerances_AbsMIPGap                0
CPXPARAM_MIP_Tolerances_MIPGap                   0
CPXPARAM_MIP_Tolerances_Integrality              0
Tried aggregator 2 times.
MIP Presolve eliminated 5470 rows and 2472 columns.
MIP Presolve modified 1874 coefficients.
Aggregator did 407 substitutions.
Reduced MIP has 1377 rows, 1014 columns, and 3365 nonzeros.
Reduced MIP has 1014 binaries, 0 generals, 0 SOSs, and 0 indicators.
Presolve time = 0.02 sec. (7.53 ticks)
Found incumbent of value 0.000000 after 0.02 sec. (8.83 ticks)
Probing time = 0.00 sec. (2.02 ticks)
Tried aggregator 1 time.
Detecting symmetries...
Reduced MIP has 1377 rows, 1014 columns, and 3365 nonzeros.
Reduced MIP has 1014 binaries, 0 generals, 0 SOSs, and 0 indicators.
Presolve time = 0.01 sec. (2.89 ticks)
Probing time = 0.00 sec. (2.00 ticks)
Clique table members: 2747.
MIP emphasis: balance optimality and feasibility.
MIP search method: dynamic search.
Parallel mode: none, using 1 thread.
Root relaxation solution time = 0.00 sec. (2.45 ticks)

        Nodes                                         Cuts/
   Node  Left     Objective  IInf  Best Integer    Best Bound    ItCnt     Gap

*     0+    0                            0.0000      203.0000              --- 
*     0     0      integral     0      203.0000      203.0000      305    0.00%
Elapsed time = 0.04 sec. (20.81 ticks, tree = 0.00 MB, solutions = 2)

Root node processing (before b&c):
  Real time             =    0.04 sec. (20.96 ticks)
Sequential b&c:
  Real time             =    0.00 sec. (0.00 ticks)
                          ------------
Total (root+branch&cut) =    0.04 sec. (20.96 ticks)
Solution is feasible.

---------------------
@@@ MIP_optimal
>>> Benchmark mc2024_track1_181.cnf k 2 OPT 203 TimeCost 0.620140790939331 TimeSolve 0.03882026672363281 TimeRead 0.005566596984863281 TimeTrans 0.575753927230835
